c File: instances/24_0.20_1.col
c
c Description: Random graph of size 24 vertices and P(0.2) of edges between any two vertices.
p col 24 276
e 1 3
e 1 4
e 1 16
e 1 17
e 2 16
e 2 17
e 2 20
e 3 7
e 3 8
e 3 15
e 3 16
e 3 17
e 3 22
e 3 23
e 4 10
e 4 11
e 4 17
e 5 7
e 5 10
e 6 7
e 6 8
e 6 10
e 6 12
e 6 15
e 6 16
e 6 20
e 7 10
e 7 15
e 7 19
e 8 14
e 8 15
e 8 18
e 8 19
e 9 13
e 9 22
e 10 13
e 10 22
e 10 24
e 11 21
e 12 15
e 12 17
e 12 22
e 13 15
e 13 17
e 13 20
e 13 21
e 13 24
e 14 18
e 14 19
e 16 21
e 16 24
e 17 19
e 17 22
e 20 23
e 21 22